69
125
100	3
99	5
98	2
97	1
95	2
93	2
92	1
91	1
90	4
88	3
87	3
86	1
85	3
84	3
83	4
82	4
81	3
80	3
79	4
78	2
77	5
76	2
75	3
74	1
73	1
72	2
71	4
70	5
69	3
68	2
67	6
66	3
65	5
64	3
63	2
62	1
61	1
60	1
59	4
58	3
57	4
56	1
55	1
54	2
53	5
52	1
51	2
50	2
48	1
47	4
46	8
45	2
44	4
43	3
42	3
41	3
40	5
39	1
38	3
37	2
36	9
35	1
33	4
32	1
31	2
30	4
29	1
28	5
26	5
